(declare-fun temp70_1 () (_ BitVec 64))
(declare-fun temp70_2 () (_ BitVec 64))
(declare-fun var1249322 () (_ BitVec 64))
(declare-fun k!0 () Bool)
(declare-fun ARGNAME_input_NAMEEND_DIM () (_ BitVec 64))
(declare-fun temp70_4 () (_ BitVec 64))
(declare-fun temp70_3 () (_ BitVec 64))
(declare-fun temp70_5 () (_ BitVec 64))
(declare-fun var1839414 () (_ BitVec 64))
(declare-fun temp70_7 () (_ BitVec 64))
(declare-fun temp70_6 () (_ BitVec 64))
(declare-fun temp70_8 () (_ BitVec 64))
(declare-fun var2363702 () (_ BitVec 64))
(declare-fun var2429249 () (_ BitVec 64))
(declare-fun temp70_10 () (_ BitVec 64))
(declare-fun temp70_9 () (_ BitVec 64))
(declare-fun temp70_11 () (_ BitVec 64))
(declare-fun var2953526 () (_ BitVec 64))
(declare-fun var3019073 () (_ BitVec 64))
(declare-fun temp70_12 () (_ BitVec 64))
(declare-fun var3544810 () (_ BitVec 64))
(declare-fun var3544794 () (_ BitVec 64))
(declare-fun var2760120 () (_ BitVec 64))
(declare-fun temp70_15 () (_ BitVec 64))
(declare-fun temp70_14 () (_ BitVec 64))
(declare-fun temp70_16 () (_ BitVec 64))
(declare-fun var4067638 () (_ BitVec 64))
(declare-fun var4133185 () (_ BitVec 64))
(declare-fun temp70_17 () (_ BitVec 64))
(declare-fun var2756452 () (_ BitVec 64))
(declare-fun temp70_19 () (_ BitVec 64))
(declare-fun temp70_18 () (_ BitVec 64))
(declare-fun temp70_21 () (_ BitVec 64))
(declare-fun temp70_20 () (_ BitVec 64))
(declare-fun temp70_23 () (_ BitVec 64))
(declare-fun temp70_22 () (_ BitVec 64))
(declare-fun temp70_25 () (_ BitVec 64))
(declare-fun temp70_24 () (_ BitVec 64))
(declare-fun temp70_27 () (_ BitVec 64))
(declare-fun temp70_26 () (_ BitVec 64))
(declare-fun temp70_29 () (_ BitVec 64))
(declare-fun temp70_28 () (_ BitVec 64))
(declare-fun temp70_31 () (_ BitVec 64))
(declare-fun temp70_30 () (_ BitVec 64))
(declare-fun temp70_33 () (_ BitVec 64))
(declare-fun temp70_32 () (_ BitVec 64))
(declare-fun temp70_35 () (_ BitVec 64))
(declare-fun temp70_34 () (_ BitVec 64))
(declare-fun temp70_37 () (_ BitVec 64))
(declare-fun temp70_36 () (_ BitVec 64))
(declare-fun temp70_38 () (_ BitVec 64))
(declare-fun var2759685 () (_ BitVec 64))
(declare-fun temp70_39 () (_ BitVec 64))
(assert (= temp70_1 #x0000000000000040))
(assert (= var1249322
   (ite (bvsgt ARGNAME_input_NAMEEND_DIM temp70_1)
        #x0000000000000001
        #x0000000000000000)))
(assert (= temp70_2 #x0000000000000000))
(assert (= var1249322 temp70_2))
(assert (= temp70_4 #x0000000000000000))
(assert (= temp70_3 temp70_4))
(assert (= temp70_5 #x0000000000000000))
(assert (= var1839414 temp70_5))
(assert (= temp70_7 #x0000000000000000))
(assert (= temp70_6 temp70_7))
(assert (= temp70_8 #x0000000000000000))
(assert (= var2363702 temp70_8))
(assert (= var2429249 var2363702))
(assert (= temp70_10 #x0000000000000000))
(assert (= temp70_9 temp70_10))
(assert (= temp70_11 #x0000000000000000))
(assert (= var2953526 temp70_11))
(assert (= var3019073 var2953526))
(assert (= temp70_12 #x0000000000000000))
(assert (= var3544810 temp70_12))
(assert (= var3544794 var3544810))
(assert (= var2760120 var3544794))
(assert (= temp70_15 #x0000000000000000))
(assert (= temp70_14 temp70_15))
(assert (= temp70_16 #x0000000000000000))
(assert (= var4067638 temp70_16))
(assert (= var4133185 var4067638))
(assert (= temp70_17 #x0000000000000001))
(assert (= var2756452 temp70_17))
(assert (= temp70_19 #x0000000000000001))
(assert (= temp70_18 temp70_19))
(assert (= temp70_21 #xffffffffffffffff))
(assert (= temp70_20 temp70_21))
(assert (= temp70_23 #x0000000000000000))
(assert (= temp70_22 temp70_23))
(assert (= temp70_25 #xffffffffffffffff))
(assert (= temp70_24 temp70_25))
(assert (= temp70_27 #x0000000000000001))
(assert (= temp70_26 temp70_27))
(assert (= temp70_29 #x0000000000000000))
(assert (= temp70_28 temp70_29))
(assert (= temp70_31 #xfffffffffffffffe))
(assert (= temp70_30 temp70_31))
(assert (= temp70_33 #x0000000000000001))
(assert (= temp70_32 temp70_33))
(assert (= temp70_35 #xffffffffffffffff))
(assert (= temp70_34 temp70_35))
(assert (= temp70_37 #x0000000000000002))
(assert (= temp70_36 temp70_37))
(assert (= temp70_38 #x0000000000000001))
(assert (distinct var2759685 temp70_38))
(assert (= temp70_39 #x0000000000000002))
(assert (distinct var2759685 temp70_39))
(model-add temp70_1 () (_ BitVec 64) #x0000000000000040)
(model-add temp70_2 () (_ BitVec 64) #x0000000000000000)
(model-add var1249322 () (_ BitVec 64) #x0000000000000000)
(model-del k!0)
(model-add ARGNAME_input_NAMEEND_DIM
           ()
           (_ BitVec 64)
           (ite (or k!0 (= #x0000000000000040 #x7fffffffffffffff))
                #x0000000000000040
                (bvadd #x0000000000000040 #x0000000000000001)))





